p cnf 240 543
1 0
2 0
3 0
4 0
5 0
6 0
7 8 0
9 10 0
11 12 0
13 14 0
15 16 0
17 18 0
19 20 0
21 22 0
23 24 0
25 0
26 0
-27 25 0
-28 27 0
-29 28 0
-30 29 0
-31 30 0
-32 31 0
-33 32 0
-34 33 0
-35 34 0
-36 35 0
-37 36 0
-38 39 0
-39 40 0
-40 41 0
-41 42 0
-42 43 0
-43 26 0
-26 44 0
-44 45 0
-45 46 0
-46 47 0
-47 48 0
-25 -39 0
-27 -40 0
-28 -41 0
-29 -42 0
-30 -43 0
-31 -26 0
-32 -44 0
-33 -45 0
-34 -46 0
-35 -47 0
-36 -48 0
-25 -1 49 0
-25 -7 50 0
-25 -9 51 0
-27 -1 52 0
-27 -7 53 0
-27 -9 54 0
-28 -1 55 0
-28 -7 56 0
-28 -9 57 0
-29 -1 58 0
-29 -7 59 0
-29 -9 60 0
-30 -1 61 0
-30 -7 62 0
-30 -9 63 0
-31 -1 64 0
-31 -7 65 0
-31 -9 66 0
-32 -1 67 0
-32 -7 68 0
-32 -9 69 0
-33 -1 70 0
-33 -7 71 0
-33 -9 72 0
-34 -1 73 0
-34 -7 74 0
-34 -9 75 0
-35 -1 76 0
-35 -7 77 0
-35 -9 78 0
49 0
79 0
-80 81 0
-49 80 0
-52 49 0
-55 52 0
-58 55 0
-61 58 0
-64 61 0
-67 64 0
-70 67 0
-73 70 0
-76 73 0
-82 83 0
-83 84 0
-84 85 0
-85 86 0
-86 87 0
-87 88 0
-88 79 0
-79 89 0
-89 90 0
-90 91 0
-91 92 0
-81 -82 0
-80 -83 0
-49 -84 0
-52 -85 0
-55 -86 0
-58 -87 0
-61 -88 0
-64 -79 0
-67 -89 0
-70 -90 0
-73 -91 0
-76 -92 0
-81 -2 93 0
-81 -13 94 0
-81 -15 95 0
-80 -2 96 0
-80 -13 97 0
-80 -15 98 0
-49 -2 99 0
-49 -13 100 0
-49 -15 101 0
-52 -2 102 0
-52 -13 103 0
-52 -15 104 0
-55 -2 105 0
-55 -13 106 0
-55 -15 107 0
-58 -2 108 0
-58 -13 109 0
-58 -15 110 0
-61 -2 111 0
-61 -13 112 0
-61 -15 113 0
-64 -2 114 0
-64 -13 115 0
-64 -15 116 0
-67 -2 117 0
-67 -13 118 0
-67 -15 119 0
-70 -2 120 0
-70 -13 121 0
-70 -15 122 0
-73 -2 123 0
-73 -13 124 0
-73 -15 125 0
99 0
126 0
-93 127 0
-96 93 0
-99 96 0
-102 99 0
-105 102 0
-108 105 0
-111 108 0
-114 111 0
-117 114 0
-120 117 0
-123 120 0
-128 129 0
-129 130 0
-130 131 0
-131 132 0
-132 133 0
-133 134 0
-134 135 0
-135 136 0
-136 137 0
-137 138 0
-138 126 0
-127 -131 0
-93 -132 0
-96 -133 0
-99 -134 0
-102 -135 0
-105 -136 0
-108 -137 0
-111 -138 0
-114 -126 0
-127 -19 139 0
-127 -21 140 0
-93 -19 141 0
-93 -21 142 0
-96 -19 143 0
-96 -21 144 0
-99 -19 145 0
-99 -21 146 0
-102 -19 147 0
-102 -21 148 0
-105 -19 149 0
-105 -21 150 0
-108 -19 151 0
-108 -21 152 0
-111 -19 153 0
-111 -21 154 0
155 0
156 0
-157 155 0
-50 157 0
-53 50 0
-56 53 0
-59 56 0
-62 59 0
-65 62 0
-68 65 0
-71 68 0
-74 71 0
-77 74 0
-158 159 0
-159 160 0
-160 161 0
-161 162 0
-162 163 0
-163 164 0
-164 156 0
-156 165 0
-165 166 0
-166 167 0
-167 168 0
-155 -160 0
-157 -161 0
-50 -162 0
-53 -163 0
-56 -164 0
-59 -156 0
-62 -165 0
-65 -166 0
-68 -167 0
-71 -168 0
-155 -3 169 0
-155 -8 29 0
-155 -11 54 0
-157 -3 139 0
-157 -8 30 0
-157 -11 57 0
-50 -3 141 0
-50 -8 31 0
-50 -11 60 0
-53 -3 143 0
-53 -8 32 0
-53 -11 63 0
-56 -3 145 0
-56 -8 33 0
-56 -11 66 0
-59 -3 147 0
-59 -8 34 0
-59 -11 69 0
-62 -3 149 0
-62 -8 35 0
-62 -11 72 0
-65 -3 151 0
-65 -8 36 0
-65 -11 75 0
-68 -3 153 0
-68 -8 37 0
-68 -11 78 0
169 0
170 0
-171 172 0
-173 171 0
-169 173 0
-139 169 0
-141 139 0
-143 141 0
-145 143 0
-147 145 0
-149 147 0
-151 149 0
-153 151 0
-174 175 0
-175 176 0
-176 177 0
-177 178 0
-178 179 0
-179 180 0
-180 181 0
-181 182 0
-182 170 0
-170 183 0
-183 184 0
-172 -175 0
-171 -176 0
-173 -177 0
-169 -178 0
-139 -179 0
-141 -180 0
-143 -181 0
-145 -182 0
-147 -170 0
-149 -183 0
-151 -184 0
-172 -4 97 0
-172 -20 96 0
-172 -23 185 0
-171 -4 100 0
-171 -20 99 0
-171 -23 186 0
-173 -4 103 0
-173 -20 102 0
-173 -23 140 0
-169 -4 106 0
-169 -20 105 0
-169 -23 142 0
-139 -4 109 0
-139 -20 108 0
-139 -23 144 0
-141 -4 112 0
-141 -20 111 0
-141 -23 146 0
-143 -4 115 0
-143 -20 114 0
-143 -23 148 0
-145 -4 118 0
-145 -20 117 0
-145 -23 150 0
-147 -4 121 0
-147 -20 120 0
-147 -23 152 0
-149 -4 124 0
-149 -20 123 0
-149 -23 154 0
106 0
187 0
-94 188 0
-97 94 0
-100 97 0
-103 100 0
-106 103 0
-109 106 0
-112 109 0
-115 112 0
-118 115 0
-121 118 0
-124 121 0
-189 190 0
-190 191 0
-191 192 0
-192 193 0
-193 194 0
-194 195 0
-195 196 0
-196 197 0
-197 198 0
-198 199 0
-199 187 0
-188 -190 0
-94 -191 0
-97 -192 0
-100 -193 0
-103 -194 0
-106 -195 0
-109 -196 0
-112 -197 0
-115 -198 0
-118 -199 0
-121 -187 0
-188 -14 49 0
-188 -17 98 0
-94 -14 52 0
-94 -17 101 0
-97 -14 55 0
-97 -17 104 0
-100 -14 58 0
-100 -17 107 0
-103 -14 61 0
-103 -17 110 0
-106 -14 64 0
-106 -17 113 0
-109 -14 67 0
-109 -17 116 0
-112 -14 70 0
-112 -17 119 0
-115 -14 73 0
-115 -17 122 0
-118 -14 76 0
-118 -17 125 0
200 0
201 0
-202 200 0
-185 202 0
-186 185 0
-140 186 0
-142 140 0
-144 142 0
-146 144 0
-148 146 0
-150 148 0
-152 150 0
-154 152 0
-203 204 0
-204 205 0
-205 201 0
-201 206 0
-206 207 0
-207 208 0
-208 209 0
-209 210 0
-210 211 0
-211 212 0
-212 213 0
-200 -201 0
-202 -206 0
-185 -207 0
-186 -208 0
-140 -209 0
-142 -210 0
-144 -211 0
-146 -212 0
-148 -213 0
-200 -5 104 0
-200 -22 102 0
-200 -24 139 0
-202 -5 107 0
-202 -22 105 0
-202 -24 141 0
-185 -5 110 0
-185 -22 108 0
-185 -24 143 0
-186 -5 113 0
-186 -22 111 0
-186 -24 145 0
-140 -5 116 0
-140 -22 114 0
-140 -24 147 0
-142 -5 119 0
-142 -22 117 0
-142 -24 149 0
-144 -5 122 0
-144 -22 120 0
-144 -24 151 0
-146 -5 125 0
-146 -22 123 0
-146 -24 153 0
104 0
214 0
-95 215 0
-98 95 0
-101 98 0
-104 101 0
-107 104 0
-110 107 0
-113 110 0
-116 113 0
-119 116 0
-122 119 0
-125 122 0
-216 217 0
-217 218 0
-218 219 0
-219 220 0
-220 221 0
-221 214 0
-214 222 0
-222 223 0
-223 224 0
-224 225 0
-225 226 0
-215 -218 0
-95 -219 0
-98 -220 0
-101 -221 0
-104 -214 0
-107 -222 0
-110 -223 0
-113 -224 0
-116 -225 0
-119 -226 0
-215 -6 54 0
-215 -16 52 0
-215 -18 100 0
-95 -6 57 0
-95 -16 55 0
-95 -18 103 0
-98 -6 60 0
-98 -16 58 0
-98 -18 106 0
-101 -6 63 0
-101 -16 61 0
-101 -18 109 0
-104 -6 66 0
-104 -16 64 0
-104 -18 112 0
-107 -6 69 0
-107 -16 67 0
-107 -18 115 0
-110 -6 72 0
-110 -16 70 0
-110 -18 118 0
-113 -6 75 0
-113 -16 73 0
-113 -18 121 0
-116 -6 78 0
-116 -16 76 0
-116 -18 124 0
66 0
227 0
-228 229 0
-51 228 0
-54 51 0
-57 54 0
-60 57 0
-63 60 0
-66 63 0
-69 66 0
-72 69 0
-75 72 0
-78 75 0
-230 231 0
-231 232 0
-232 233 0
-233 234 0
-234 235 0
-235 236 0
-236 237 0
-237 238 0
-238 239 0
-239 240 0
-240 227 0
-229 -234 0
-228 -235 0
-51 -236 0
-54 -237 0
-57 -238 0
-60 -239 0
-63 -240 0
-66 -227 0
-229 -10 31 0
-229 -12 59 0
-228 -10 32 0
-228 -12 62 0
-51 -10 33 0
-51 -12 65 0
-54 -10 34 0
-54 -12 68 0
-57 -10 35 0
-57 -12 71 0
-60 -10 36 0
-60 -12 74 0
-63 -10 37 0
-63 -12 77 0
